10
1 0 2
2 0 20
2 1 17
3 0 7
3 1 15
3 2 11
4 0 3
4 1 4
4 2 20
4 3 10
5 0 6
5 1 8
5 2 14
5 3 2
5 4 10
6 0 18
6 1 11
6 2 15
6 3 5
6 4 18
6 5 13
7 0 1
7 1 15
7 2 1
7 3 6
7 4 20
7 5 20
7 6 20
8 0 5
8 1 4
8 2 6
8 3 19
8 4 1
8 5 20
8 6 2
8 7 18
9 0 7
9 1 16
9 2 6
9 3 1
9 4 1
9 5 15
9 6 19
9 7 16
9 8 15
